RT is False
Default write of storage_offers_DA.csv just to have a file (but constraint should be inactive)
Reading model...
...model read.
creating competitive generators file...
...competitive generators recorded.
Loading data...
.. day-ahead data with real-time VRE data read.
Compiling instance...
...instance created.
Creating Offer Mitigation (model will solve as dispatch if TRUE)...
Solving...

Welcome to IBM(R) ILOG(R) CPLEX(R) Interactive Optimizer 12.9.0.0
  with Simplex, Mixed Integer & Barrier Optimizers
5725-A06 5725-A29 5724-Y48 5724-Y49 5724-Y54 5724-Y55 5655-Y21
Copyright IBM Corp. 1988, 2019.  All Rights Reserved.

Type 'help' for a list of available commands.
Type 'help' followed by a command name for more
information on commands.

CPLEX> Logfile 'cplex.log' closed.
Logfile 'C:\Users\Luke\Desktop\test919\logs\tmp5a_rl8n_.cplex.log' open.
CPLEX> New value for parallel optimization mode: -1
CPLEX> New value for mixed integer optimality gap tolerance: 0.01
CPLEX> New value for integrality tolerance: 1e-09
CPLEX> New value for feasibility tolerance: 0.01
CPLEX> New value for deterministic time limit in ticks: 75000
CPLEX> Problem 'C:\Users\Luke\Desktop\test919\logs\tmpkubljmew.pyomo.lp' read.
Read time = 0.05 sec. (3.04 ticks)
CPLEX> Problem name         : C:\Users\Luke\Desktop\test919\logs\tmpkubljmew.pyomo.lp
Objective sense      : Minimize
Variables            :   26081  [Nneg: 1,  Box: 21616,  Free: 4464]
Objective nonzeros   :    2496
Linear constraints   :   27515  [Less: 14006,  Greater: 4416,  Equal: 9093]
  Nonzeros           :   89219
  RHS nonzeros       :   12271

Variables            : Min LB: -5000.000        Max UB: 1000000.       
Objective nonzeros   : Min   : 15.73158         Max   : 124.0997       
Linear constraints   :
  Nonzeros           : Min   : 0.8500000        Max   : 3000.000       
  RHS nonzeros       : Min   : 0.3583333        Max   : 5000.000       
CPLEX> CPXPARAM_Parallel                                -1
CPXPARAM_Simplex_Tolerances_Feasibility          0.01
CPXPARAM_DetTimeLimit                            75000
CPXPARAM_MIP_Tolerances_MIPGap                   0.01
CPXPARAM_MIP_Tolerances_Integrality              1.0000000000000001e-09
Parallel mode: opportunistic, using up to 12 threads for concurrent optimization.
Tried aggregator 1 time.
LP Presolve eliminated 21377 rows and 15487 columns.
Aggregator did 749 substitutions.
Reduced LP has 5389 rows, 9845 columns, and 31782 nonzeros.
Presolve time = 0.05 sec. (30.21 ticks)
Symmetry aggregator did 5563 additional substitutions.

Iteration log . . .
Iteration:     1   Dual objective     =             0.000000
Perturbation started.
Iteration:   101   Dual objective     =             0.000000
Iteration:   333   Dual objective     =             1.365687
Iteration:   607   Dual objective     =             1.951336
Iteration:   865   Dual objective     =             2.089979
Iteration:  1055   Dual objective     =             2.200016
Iteration:  1332   Dual objective     =             2.254915
Iteration:  1585   Dual objective     =             2.288634
Iteration:  1807   Dual objective     =             2.307316
Iteration:  2004   Dual objective     =          2677.920507
Iteration:  2210   Dual objective     =          5824.249291
Iteration:  2438   Dual objective     =         13561.887100
Iteration:  2727   Dual objective     =         16961.503394
Removing perturbation.
Dual superbasis not built.
Using devex.

Primal simplex solved model.


Primal simplex - Optimal:  Objective =  1.7779040042e+04
Solution time =    0.11 sec.  Iterations = 1554 (1082)
Deterministic time = 79.12 ticks  (725.86 ticks/sec)

CPLEX> Solution written to file 'C:\Users\Luke\Desktop\test919\logs\tmpcy5h3zel.cplex.sol'.
CPLEX> Exporting results... 
...storage offer mitigation file created
Converting model to MPEC...
...converted
NOTE: initial MIP solve with only storage competitive to get feasible solution
Solving...

Welcome to IBM(R) ILOG(R) CPLEX(R) Interactive Optimizer 12.9.0.0
  with Simplex, Mixed Integer & Barrier Optimizers
5725-A06 5725-A29 5724-Y48 5724-Y49 5724-Y54 5724-Y55 5655-Y21
Copyright IBM Corp. 1988, 2019.  All Rights Reserved.

Type 'help' for a list of available commands.
Type 'help' followed by a command name for more
information on commands.

CPLEX> Logfile 'cplex.log' closed.
Logfile 'C:\Users\Luke\Desktop\test919\logs\tmpeas1_l86.cplex.log' open.
CPLEX> New value for parallel optimization mode: -1
CPLEX> New value for mixed integer optimality gap tolerance: 0.01
CPLEX> New value for integrality tolerance: 1e-09
CPLEX> New value for feasibility tolerance: 0.01
CPLEX> New value for deterministic time limit in ticks: 75000
CPLEX> Problem 'C:\Users\Luke\Desktop\test919\logs\tmp8s7b3368.pyomo.lp' read.
Read time = 0.22 sec. (14.78 ticks)
CPLEX> Problem name         : C:\Users\Luke\Desktop\test919\logs\tmp8s7b3368.pyomo.lp
Objective sense      : Maximize
Variables            :   53805  [Nneg: 1,  Box: 22000,  Free: 4464,
                                 Binary: 27340]
Objective nonzeros   :    9029
Linear constraints   :  123205  [Less: 41346,  Greater: 59096,  Equal: 22763]
  Nonzeros           :  291753
  RHS nonzeros       :   67414

Variables            : Min LB: -5000.000        Max UB: 1000000.       
Objective nonzeros   : Min   : 0.3583333        Max   : 2500.000       
Linear constraints   :
  Nonzeros           : Min   : 0.3583333        Max   : 1000000.       
  RHS nonzeros       : Min   : 0.3583333        Max   : 1000000.       
CPLEX> CPXPARAM_Parallel                                -1
CPXPARAM_Simplex_Tolerances_Feasibility          0.01
CPXPARAM_DetTimeLimit                            75000
CPXPARAM_MIP_Tolerances_MIPGap                   0.01
CPXPARAM_MIP_Tolerances_Integrality              1.0000000000000001e-09
Tried aggregator 3 times.
MIP Presolve eliminated 88652 rows and 18976 columns.
MIP Presolve added 3373 rows and 0 columns.
MIP Presolve modified 24861 coefficients.
Aggregator did 13001 substitutions.
Reduced MIP has 24925 rows, 21272 columns, and 71078 nonzeros.
Reduced MIP has 8415 binaries, 0 generals, 0 SOSs, and 0 indicators.
Presolve time = 0.25 sec. (173.79 ticks)
Probing fixed 417 vars, tightened 2860 bounds.
Probing time = 1.69 sec. (908.46 ticks)
Tried aggregator 2 times.
MIP Presolve eliminated 939 rows and 839 columns.
MIP Presolve modified 2213 coefficients.
Aggregator did 38 substitutions.
Reduced MIP has 23948 rows, 20395 columns, and 68242 nonzeros.
Reduced MIP has 7996 binaries, 0 generals, 0 SOSs, and 0 indicators.
Presolve time = 0.09 sec. (67.63 ticks)
Probing fixed 0 vars, tightened 1 bounds.
Probing time = 0.06 sec. (19.84 ticks)
Clique table members: 6506.
MIP emphasis: balance optimality and feasibility.
MIP search method: dynamic search.
Parallel mode: opportunistic, using up to 12 threads.
Root relaxation solution time = 0.59 sec. (562.76 ticks)

        Nodes                                         Cuts/
   Node  Left     Objective  IInf  Best Integer    Best Bound    ItCnt     Gap

      0     0     3059.8252   693                   3059.8252     6663         
      0     0     3059.8252    22                    Cuts: 32     6675         
      0     0     3059.8252    22                     Cuts: 6     6676         
*     0     0      integral     0     3059.8252     3059.8252     6676    0.00%
Elapsed time = 5.55 sec. (3245.88 ticks, tree = 0.01 MB, solutions = 1)

Implied bound cuts applied:  3
Flow cuts applied:  2
Mixed integer rounding cuts applied:  2
Gomory fractional cuts applied:  5

Root node processing (before b&c):
  Real time             =    5.56 sec. (3247.83 ticks)
Parallel b&c, 12 threads:
  Real time             =    0.00 sec. (0.00 ticks)
  Sync time (average)   =    0.00 sec.
  Wait time (average)   =    0.00 sec.
                          ------------
Total (root+branch&cut) =    5.56 sec. (3247.83 ticks)

Solution pool: 1 solution saved.

MIP - Integer optimal solution:  Objective =  3.0598252230e+03
Solution time =    5.56 sec.  Iterations = 6676  Nodes = 0
Deterministic time = 3247.98 ticks  (583.96 ticks/sec)

CPLEX> Incumbent solution written to file 'C:\Users\Luke\Desktop\test919\logs\tmp8t9bk1uo.cplex.sol'.
CPLEX> NOTE: no warmstart specified for MIP iteration, default behavior is true
NOTE: resolving with all competitive generators using storage-only solution to warmstart
Solving...

Welcome to IBM(R) ILOG(R) CPLEX(R) Interactive Optimizer 12.9.0.0
  with Simplex, Mixed Integer & Barrier Optimizers
5725-A06 5725-A29 5724-Y48 5724-Y49 5724-Y54 5724-Y55 5655-Y21
Copyright IBM Corp. 1988, 2019.  All Rights Reserved.

Type 'help' for a list of available commands.
Type 'help' followed by a command name for more
information on commands.

CPLEX> Logfile 'cplex.log' closed.
Logfile 'C:\Users\Luke\Desktop\test919\logs\tmp4co5i95w.cplex.log' open.
CPLEX> New value for parallel optimization mode: -1
CPLEX> New value for mixed integer optimality gap tolerance: 0.01
CPLEX> New value for integrality tolerance: 1e-09
CPLEX> New value for feasibility tolerance: 0.01
CPLEX> New value for deterministic time limit in ticks: 75000
CPLEX> Problem 'C:\Users\Luke\Desktop\test919\logs\tmp9tw80r34.pyomo.lp' read.
Read time = 0.20 sec. (14.81 ticks)
CPLEX> MIP start file 'C:\Users\Luke\Desktop\test919\logs\tmpthapay5r.cplex.mst' read.
CPLEX> Problem name         : C:\Users\Luke\Desktop\test919\logs\tmp9tw80r34.pyomo.lp
Objective sense      : Maximize
Variables            :   54525  [Nneg: 1,  Box: 22720,  Free: 4464,
                                 Binary: 27340]
Objective nonzeros   :    9725
Linear constraints   :  123205  [Less: 41346,  Greater: 59096,  Equal: 22763]
  Nonzeros           :  291753
  RHS nonzeros       :   67414

Variables            : Min LB: -5000.000        Max UB: 1000000.       
Objective nonzeros   : Min   : 0.3583333        Max   : 2500.000       
Linear constraints   :
  Nonzeros           : Min   : 0.3583333        Max   : 1000000.       
  RHS nonzeros       : Min   : 0.3583333        Max   : 1000000.       
CPLEX> CPXPARAM_Parallel                                -1
CPXPARAM_Simplex_Tolerances_Feasibility          0.01
CPXPARAM_DetTimeLimit                            75000
CPXPARAM_MIP_Tolerances_MIPGap                   0.01
CPXPARAM_MIP_Tolerances_Integrality              1.0000000000000001e-09
Warning:  No solution found from 1 MIP starts.
Retaining values of one MIP start for possible repair.
Tried aggregator 3 times.
MIP Presolve eliminated 88652 rows and 19696 columns.
MIP Presolve added 3373 rows and 0 columns.
MIP Presolve modified 24861 coefficients.
Aggregator did 13001 substitutions.
Reduced MIP has 24925 rows, 21272 columns, and 71078 nonzeros.
Reduced MIP has 8415 binaries, 0 generals, 0 SOSs, and 0 indicators.
Presolve time = 0.25 sec. (174.15 ticks)
Probing fixed 417 vars, tightened 2860 bounds.
Probing time = 1.59 sec. (908.46 ticks)
Tried aggregator 2 times.
MIP Presolve eliminated 939 rows and 839 columns.
MIP Presolve modified 2213 coefficients.
Aggregator did 38 substitutions.
Reduced MIP has 23948 rows, 20395 columns, and 68242 nonzeros.
Reduced MIP has 7996 binaries, 0 generals, 0 SOSs, and 0 indicators.
Presolve time = 0.09 sec. (67.64 ticks)
Probing fixed 0 vars, tightened 1 bounds.
Probing time = 0.05 sec. (19.84 ticks)
Clique table members: 6506.
MIP emphasis: balance optimality and feasibility.
MIP search method: dynamic search.
Parallel mode: opportunistic, using up to 12 threads.
Root relaxation solution time = 0.42 sec. (299.85 ticks)

        Nodes                                         Cuts/
   Node  Left     Objective  IInf  Best Integer    Best Bound    ItCnt     Gap

      0     0    79150.3597  1779                  79150.3597     6572         
      0     0    76627.1513   682                   Cuts: 546     6869         
      0     0    75912.6255   609                   Cuts: 188     6973         
      0     0    75892.2692   595                    Cuts: 78     7023         
      0     0    75873.6930   579                    Cuts: 71     7063         
      0     0    75861.2452   555                    Cuts: 66     7096         
      0     0    75861.2452   534                    Cuts: 42     7121         
      0     0    75861.2452   522                    Cuts: 39     7144         
      0     0    75861.2452   509                    Cuts: 35     7156         
      0     0    75602.0073   496                    Cuts: 40     7185         
      0     0    75058.8516   485                    Cuts: 31     7219         
      0     0    75056.3979   489                    Cuts: 38     7234         
      0     0    75048.9116   482                    Cuts: 38     7261         
Repair heuristic found nothing.
      0     2    75048.9116   482                    Cuts: 21     7261         
Elapsed time = 14.34 sec. (6440.44 ticks, tree = 0.02 MB, solutions = 0)
    114    31    40400.6233   375                  72602.5879     7808         
    330   110    34769.3799   349                  72602.5879     9011         
    548   200    45089.7023   354                  72602.5879    10795         
    734   413    21812.1368   289                  72602.5879    13254         
   1026   550    21812.1368   284                  72602.5879    16690         
   1417   615    29281.6760   294                  72602.5879    17057         
   1793  1399    25527.9372   310                  72602.5879    18997         
   2195  1562    21690.8147   340                  72602.5879    19227         
   2590  1741    16518.6927   268                  72602.5879    19403         
*  3945  2643      integral     0    21812.1368    72355.3660    20124  231.72%
   4297  3328    17838.2267   231    21812.1368    72342.1693    21051  231.66%
Elapsed time = 26.77 sec. (9547.04 ticks, tree = 30.40 MB, solutions = 3)
*  4383  3280      integral     0    27513.9697    72342.1693    21044  162.93%
   4414  1413        cutoff          27513.9697    62105.3011    29574  125.72%
   5069   281    30792.3468    59    27513.9697    60520.3354    32907  119.96%
   5633   932    31340.7097    69    27513.9697    57212.0777    41586  107.94%
   6202  1137    33983.4828   102    27513.9697    52100.4821    43844   89.36%
   7194  1677    33689.4245    33    30214.5700    49618.2241    54945   64.22%
   8210  2170        cutoff          30214.5700    48502.1540    60053   60.53%
   9099  3013    37645.5535    35    30214.5700    48090.4343    68932   59.16%
   9999  3824    35527.8324    30    30214.5700    47415.2610    78120   56.93%
  10984  4227    30227.5455    35    30214.5700    46871.1937    83960   55.13%
  12008  4668    33992.9125    62    31893.1157    46414.6827    89588   45.53%
Elapsed time = 76.64 sec. (24649.55 ticks, tree = 36.57 MB, solutions = 5)
  12968  4745    32003.2978    22    31893.1157    46016.0072   101451   44.28%
  13800  4800    33203.8972    61    31893.1157    45433.6956   102002   42.46%
  14657  5109    43354.3710    67    32820.5875    44818.2728   107969   36.56%
* 15054  4684      integral     0    32863.7605    44818.2728   115165   36.38%
  15223  5433    38560.7801    31    32863.7605    44818.2728   111912   36.38%
  15778  5170    39030.7595    28    32863.7605    44484.0235   124751   35.36%
  16464  4940    32870.6905    63    32863.7605    44225.5486   119836   34.57%
* 17179  5302      integral     0    32902.2970    44001.8257   125897   33.73%
  17180  5302    32902.2970     0    32902.2970    44001.8257   125897   33.73%
  17819  5931    33470.0551    44    32902.2970    43865.6715   135852   33.32%
  18590  6039    40248.7310    48    32902.2970    43851.0218   136908   33.28%
* 19174  7283      integral     0    33024.4840    43851.0218   150627   32.78%
  19428  6100    39668.9628    43    33024.4840    43851.0218   137554   32.78%
Elapsed time = 113.34 sec. (34196.79 ticks, tree = 47.07 MB, solutions = 10)
  20347  7052    39248.0424    26    33024.4840    43562.7329   148103   31.91%
  21228  7808    40468.8572    50    33024.4840    43562.7329   157245   31.91%
  22137  8824    37953.3441    45    33024.4840    43562.7329   171173   31.91%
  23091  7270    42474.0692    56    33024.4840    43562.7329   150512   31.91%
  24043 10369    35393.6009    25    33024.4840    43562.7329   190618   31.91%
  25010  7833    35251.3589    29    33024.4840    43562.7329   156907   31.91%
  25996  8411    39802.7106    24    33024.4840    43562.7329   165700   31.91%
  27028  9206    40142.9054    41    33024.4840    43562.7329   177796   31.91%
  28075 10835    34294.8095    45    33024.4840    43562.7329   196053   31.91%
  29082 10910    34302.7137    29    33024.4840    43562.7329   196862   31.91%
Elapsed time = 152.70 sec. (43742.10 ticks, tree = 88.22 MB, solutions = 10)
  30172 10668    40180.3260    46    33024.4840    43562.7329   195577   31.91%
  31187 12628        cutoff          33024.4840    43562.7329   220313   31.91%
  32241 12038    33780.6261    43    33024.4840    43562.7329   213316   31.91%
  33174 13708    35591.5071    40    33024.4840    43562.7329   235082   31.91%
  34076 11285    40873.6930    48    33024.4840    43562.7329   202345   31.91%
  34756 10419    39329.6697    56    33024.4840    43562.7329   190643   31.91%
  35269 13089    33064.2175    55    33024.4840    43562.7329   225853   31.91%
  35740 14707        cutoff          33024.4840    43562.7329   244484   31.91%
  36066 13996    39661.7027    46    33024.4840    43562.7329   238520   31.91%
  36243 13327    34373.6335    34    33024.4840    43562.7329   227652   31.91%
Elapsed time = 172.66 sec. (53296.78 ticks, tree = 109.42 MB, solutions = 10)
  36344  9775        cutoff          33024.4840    43562.7329   183101   31.91%
  36348  9775        cutoff          33024.4840    43562.7329   183105   31.91%
  36352 10343        cutoff          33024.4840    43562.7329   190497   31.91%
  36356 10497        cutoff          33024.4840    43562.7329   192061   31.91%
  36360 10497        cutoff          33024.4840    43562.7329   192065   31.91%
  36364 10663        cutoff          33024.4840    43562.7329   194483   31.91%
  36368 10978        cutoff          33024.4840    43562.7329   199079   31.91%
  36372 11914        cutoff          33024.4840    43562.7329   211641   31.91%
  36376 12169        cutoff          33024.4840    43562.7329   214197   31.91%
  36384 12469    33567.1560    12    33024.4840    43562.7329   217482   31.91%
Elapsed time = 172.66 sec. (69440.15 ticks, tree = 101.53 MB, solutions = 10)
  36393 12476    33567.1560    12    33024.4840    43562.7329   217495   31.91%
  36422 12503        cutoff          33024.4840    43562.7329   217547   31.91%
  36427 12909        cutoff          33024.4840    43562.7329   223479   31.91%

GUB cover cuts applied:  1
Clique cuts applied:  38
Cover cuts applied:  16
Implied bound cuts applied:  29
Flow cuts applied:  653
Mixed integer rounding cuts applied:  149
Gomory fractional cuts applied:  96

Root node processing (before b&c):
  Real time             =   13.63 sec. (6391.63 ticks)
Parallel b&c, 12 threads:
  Real time             =  159.11 sec. (68765.92 ticks)
  Sync time (average)   =    0.84 sec.
  Wait time (average)   =    0.04 sec.
                          ------------
Total (root+branch&cut) =  172.73 sec. (75157.55 ticks)

Solution pool: 10 solutions saved.

MIP - Deterministic time limit exceeded, integer feasible:  Objective =  3.3024484047e+04
Current MIP best bound =  4.3562732896e+04 (gap = 10538.2, 31.91%)
Solution time =  172.73 sec.  Iterations = 295679  Nodes = 36432 (18809)
Deterministic time = 75157.71 ticks  (435.10 ticks/sec)

CPLEX> Incumbent solution written to file 'C:\Users\Luke\Desktop\test919\logs\tmpkzz12m9c.cplex.sol'.
CPLEX> Exporting results... 
